n_res = 4;
rc = [ 15, 14, 16, 16 ];
n_tasks = 30;
d = [ 9, 10, 1, 5, 9, 9, 6, 7, 6, 9, 8, 9, 7, 8, 1, 1, 9, 6, 6, 10, 3, 4, 9, 1, 4, 8, 5, 3, 2, 7 ];
rr = [| 10, 3, 2, 4, 5, 6, 5, 5, 4, 1, 2, 7, 4, 2, 5, 2, 8, 9, 9, 8, 10, 4, 10, 2, 1, 10, 6, 2, 1, 10
      | 8, 6, 2, 10, 10, 10, 6, 6, 7, 1, 8, 2, 4, 6, 1, 5, 10, 3, 9, 5, 8, 2, 1, 7, 6, 10, 1, 3, 8, 10
      | 4, 10, 8, 2, 5, 10, 7, 8, 1, 6, 5, 8, 9, 3, 1, 9, 4, 1, 2, 3, 10, 4, 4, 8, 9, 9, 9, 5, 10, 6
      | 7, 5, 6, 9, 5, 7, 6, 10, 9, 3, 7, 4, 7, 8, 5, 5, 5, 8, 1, 10, 5, 2, 7, 1, 2, 7, 5, 5, 5, 5 |];
suc = [ { 2 }, 
        { 1 }, 
        { 4 }, 
        { 3 }, 
        { 6 }, 
        { 5 }, 
        { 8 }, 
        { 7 }, 
        { 10 }, 
        { 9 }, 
        { 12 }, 
        { 11 }, 
        { 14 }, 
        { 13 }, 
        { 16 }, 
        { 15 }, 
        { 18 }, 
        { 17 }, 
        { 20 }, 
        { 19 }, 
        { 22 }, 
        { 21 }, 
        { 24 }, 
        { 23 }, 
        { 26 }, 
        { 25 }, 
        { 28 }, 
        { 27 }, 
        { 30 }, 
        { 29 }]; 
